SCIP version 8.0.0 [precision: 8 byte] [memory: block] [mode: optimized] [LP solver: SoPlex 6.0.0] [GitHash: a740f0891e]
Copyright (C) 2002-2021 Konrad-Zuse-Zentrum fuer Informationstechnik Berlin (ZIB)

External libraries: 
  SoPlex 6.0.0         Linear Programming Solver developed at Zuse Institute Berlin (soplex.zib.de) [GitHash: 71a5873d]
  CppAD 20180000.0     Algorithmic Differentiation of C++ algorithms developed by B. Bell (github.com/coin-or/CppAD)
  ZLIB 1.2.11          General purpose compression library by J. Gailly and M. Adler (zlib.net)
  GMP 6.2.1            GNU Multiple Precision Arithmetic Library developed by T. Granlund (gmplib.org)
  ZIMPL 3.5.1          Zuse Institute Mathematical Programming Language developed by T. Koch (zimpl.zib.de)
  AMPL/MP 4e2d45c4     AMPL .nl file reader library (github.com/ampl/mp)
  PaPILO 2.0.0         parallel presolve for integer and linear optimization (github.com/scipopt/papilo) [GitHash: 76cafc1]
  bliss 0.73p          Computing Graph Automorphism Groups by T. Junttila and P. Kaski (www.tcs.hut.fi/Software/bliss/)
  Ipopt 3.13.2         Interior Point Optimizer developed by A. Waechter et.al. (github.com/coin-or/Ipopt)

user parameter file <scip.set> not found - using default parameters

read problem <../modeles/2_289.lp>
============

original problem has 1160 variables (578 bin, 0 int, 0 impl, 582 cont) and 587 constraints

solve problem
=============

presolving:
(round 1, fast)       2 del vars, 0 del conss, 0 add conss, 1232 chg bounds, 0 chg sides, 0 chg coeffs, 0 upgd conss, 0 impls, 2 clqs
(round 2, fast)       2 del vars, 0 del conss, 0 add conss, 1232 chg bounds, 0 chg sides, 580 chg coeffs, 0 upgd conss, 0 impls, 2 clqs
   (0.0s) running MILP presolver
   (0.1s) MILP presolver (42 rounds): 0 aggregations, 332 fixings, 8 bound changes
(round 3, medium)     334 del vars, 587 del conss, 425 add conss, 1240 chg bounds, 0 chg sides, 580 chg coeffs, 0 upgd conss, 0 impls, 2 clqs
(round 4, exhaustive) 334 del vars, 587 del conss, 425 add conss, 1240 chg bounds, 0 chg sides, 580 chg coeffs, 22 upgd conss, 0 impls, 2 clqs
   (0.1s) sparsify finished: 4/2896 (0.1%) nonzeros canceled - in total 4 canceled nonzeros, 418 changed coefficients, 0 added nonzeros
(round 5, exhaustive) 334 del vars, 587 del conss, 425 add conss, 1240 chg bounds, 0 chg sides, 998 chg coeffs, 22 upgd conss, 20 impls, 2 clqs
(round 6, exhaustive) 359 del vars, 587 del conss, 425 add conss, 1240 chg bounds, 0 chg sides, 998 chg coeffs, 22 upgd conss, 11969 impls, 2 clqs
(round 7, fast)       362 del vars, 590 del conss, 425 add conss, 1243 chg bounds, 0 chg sides, 998 chg coeffs, 22 upgd conss, 11969 impls, 2 clqs
(round 8, exhaustive) 362 del vars, 590 del conss, 425 add conss, 1243 chg bounds, 0 chg sides, 998 chg coeffs, 49 upgd conss, 11969 impls, 2 clqs
(round 9, exhaustive) 387 del vars, 590 del conss, 425 add conss, 1243 chg bounds, 0 chg sides, 998 chg coeffs, 49 upgd conss, 19776 impls, 2 clqs
(round 10, fast)       387 del vars, 601 del conss, 425 add conss, 1243 chg bounds, 0 chg sides, 998 chg coeffs, 49 upgd conss, 19776 impls, 2 clqs
(round 11, exhaustive) 387 del vars, 601 del conss, 425 add conss, 1243 chg bounds, 0 chg sides, 998 chg coeffs, 62 upgd conss, 19776 impls, 2 clqs
(round 12, exhaustive) 412 del vars, 601 del conss, 425 add conss, 1243 chg bounds, 0 chg sides, 998 chg coeffs, 62 upgd conss, 35485 impls, 2 clqs
(round 13, fast)       412 del vars, 613 del conss, 425 add conss, 1243 chg bounds, 0 chg sides, 998 chg coeffs, 62 upgd conss, 35485 impls, 2 clqs
(round 14, exhaustive) 412 del vars, 613 del conss, 425 add conss, 1243 chg bounds, 0 chg sides, 998 chg coeffs, 72 upgd conss, 35485 impls, 2 clqs
(round 15, exhaustive) 438 del vars, 613 del conss, 425 add conss, 1243 chg bounds, 0 chg sides, 998 chg coeffs, 72 upgd conss, 48227 impls, 2 clqs
(round 16, fast)       438 del vars, 625 del conss, 425 add conss, 1243 chg bounds, 0 chg sides, 998 chg coeffs, 72 upgd conss, 48227 impls, 2 clqs
(round 17, exhaustive) 438 del vars, 625 del conss, 425 add conss, 1243 chg bounds, 0 chg sides, 998 chg coeffs, 76 upgd conss, 48227 impls, 2 clqs
(round 18, exhaustive) 463 del vars, 625 del conss, 425 add conss, 1243 chg bounds, 0 chg sides, 998 chg coeffs, 76 upgd conss, 59000 impls, 2 clqs
(round 19, fast)       465 del vars, 642 del conss, 425 add conss, 1245 chg bounds, 0 chg sides, 998 chg coeffs, 76 upgd conss, 59000 impls, 2 clqs
   (0.3s) running MILP presolver
   (0.3s) MILP presolver found nothing
(round 20, exhaustive) 465 del vars, 642 del conss, 425 add conss, 1245 chg bounds, 0 chg sides, 998 chg coeffs, 78 upgd conss, 59000 impls, 2 clqs
(round 21, exhaustive) 491 del vars, 642 del conss, 425 add conss, 1245 chg bounds, 0 chg sides, 998 chg coeffs, 78 upgd conss, 63409 impls, 2 clqs
(round 22, fast)       491 del vars, 659 del conss, 425 add conss, 1245 chg bounds, 0 chg sides, 998 chg coeffs, 78 upgd conss, 63409 impls, 2 clqs
   (0.3s) probing cycle finished: starting next cycle
   (0.3s) probing: 51/333 (15.3%) - 152 fixings, 0 aggregations, 63498 implications, 0 bound changes
   (0.3s) probing aborted: 50/50 successive totally useless probings
   (0.3s) symmetry computation started: requiring (bin +, int -, cont +), (fixed: bin -, int +, cont -)
   (0.3s) no symmetry present
presolving (23 rounds: 23 fast, 15 medium, 14 exhaustive):
 491 deleted vars, 659 deleted constraints, 425 added constraints, 1245 tightened bounds, 0 added holes, 0 changed sides, 998 changed coefficients
 63574 implications, 2 cliques
presolved problem has 669 variables (333 bin, 0 int, 0 impl, 336 cont) and 343 constraints
      6 constraints of type <varbound>
      2 constraints of type <setppc>
    335 constraints of type <linear>
Presolving Time: 0.29

 time | node  | left  |LP iter|LP it/n|mem/heur|mdpt |vars |cons |rows |cuts |sepa|confs|strbr|  dualbound   | primalbound  |  gap   | compl. 
  0.3s|     1 |     0 |   193 |     - |    21M |   0 | 669 | 343 | 343 |   0 |  0 |   0 |   0 |-1.414148e+00 |      --      |    Inf | unknown
r 0.3s|     1 |     0 |   193 |     - |shifting|   0 | 669 | 343 | 343 |   0 |  0 |   0 |   0 |-1.414148e+00 |-3.460208e-01 | 308.69%| unknown
  0.3s|     1 |     0 |   194 |     - |    21M |   0 | 669 | 343 | 344 |   1 |  1 |   0 |   0 |-1.414148e+00 |-3.460208e-01 | 308.69%| unknown
r 0.3s|     1 |     0 |   194 |     - |shifting|   0 | 669 | 343 | 344 |   1 |  1 |   0 |   0 |-1.414148e+00 |-9.781617e-01 |  44.57%| unknown
  0.3s|     1 |     0 |   195 |     - |    21M |   0 | 669 | 343 | 345 |   2 |  2 |   0 |   0 |-1.414148e+00 |-9.781617e-01 |  44.57%| unknown
r 0.3s|     1 |     0 |   195 |     - |shifting|   0 | 669 | 343 | 345 |   2 |  2 |   0 |   0 |-1.414148e+00 |-9.920025e-01 |  42.55%| unknown
  0.3s|     1 |     0 |   196 |     - |    21M |   0 | 669 | 343 | 346 |   3 |  3 |   0 |   0 |-1.414148e+00 |-9.920025e-01 |  42.55%| unknown
  0.3s|     1 |     0 |   197 |     - |    21M |   0 | 669 | 343 | 347 |   4 |  4 |   0 |   0 |-1.414148e+00 |-9.920025e-01 |  42.55%| unknown
  0.3s|     1 |     0 |   198 |     - |    22M |   0 | 669 | 343 | 348 |   5 |  5 |   0 |   0 |-1.414148e+00 |-9.920025e-01 |  42.55%| unknown
  0.3s|     1 |     0 |   199 |     - |    22M |   0 | 669 | 343 | 349 |   6 |  6 |   0 |   0 |-1.414148e+00 |-9.920025e-01 |  42.55%| unknown
  0.3s|     1 |     0 |   200 |     - |    22M |   0 | 669 | 343 | 350 |   7 |  7 |   0 |   0 |-1.414148e+00 |-9.920025e-01 |  42.55%| unknown
  0.3s|     1 |     0 |   201 |     - |    22M |   0 | 669 | 343 | 351 |   8 |  8 |   0 |   0 |-1.414148e+00 |-9.920025e-01 |  42.55%| unknown
  0.3s|     1 |     0 |   202 |     - |    22M |   0 | 669 | 343 | 352 |   9 |  9 |   0 |   0 |-1.414148e+00 |-9.920025e-01 |  42.55%| unknown
  0.4s|     1 |     0 |   203 |     - |    22M |   0 | 669 | 343 | 353 |  10 | 10 |   0 |   0 |-1.414148e+00 |-9.920025e-01 |  42.55%| unknown
  0.4s|     1 |     0 |   204 |     - |    22M |   0 | 669 | 343 | 354 |  11 | 11 |   0 |   0 |-1.414148e+00 |-9.920025e-01 |  42.55%| unknown
 time | node  | left  |LP iter|LP it/n|mem/heur|mdpt |vars |cons |rows |cuts |sepa|confs|strbr|  dualbound   | primalbound  |  gap   | compl. 
L 0.4s|     1 |     0 |   802 |     - |    rens|   0 | 669 | 343 | 354 |  11 | 11 |   0 |   0 |-1.414148e+00 |-1.414148e+00 |   0.00%| unknown
  0.4s|     1 |     0 |   802 |     - |    22M |   0 | 669 | 343 | 354 |  11 | 11 |   0 |   0 |-1.414148e+00 |-1.414148e+00 |   0.00%| unknown

SCIP Status        : problem is solved [optimal solution found]
Solving Time (sec) : 0.37
Solving Nodes      : 1
Primal Bound       : -1.41414783906642e+00 (7 solutions)
Dual Bound         : -1.41414783906642e+00
Gap                : 0.00 %

primal solution (original space):
=================================

objective value:                    -1.41414783906642
y_1,94_                                             1 	(obj:0)
y_2,94_                                             1 	(obj:0)
x_1_                               -0.705882352941176 	(obj:1)
t_2,94_                             0.672181372549023 	(obj:0)
t_2,95_                             0.327818627450977 	(obj:0)
t_1,94_                                           0.5 	(obj:0)
t_1,95_                                           0.5 	(obj:0)
x_2_                               -0.708265486125246 	(obj:1)

Statistics
==========

SCIP Status        : problem is solved [optimal solution found]
Total Time         :       0.37
  solving          :       0.37
  presolving       :       0.29 (included in solving)
  reading          :       0.00
  copying          :       0.00 (1 #copies) (minimal 0.00, maximal 0.00, average 0.00)
Original Problem   :
  Problem name     : ../modeles/2_289.lp
  Variables        : 1160 (578 binary, 0 integer, 0 implicit integer, 582 continuous)
  Constraints      : 587 initial, 587 maximal
  Objective        : minimize, 2 non-zeros (abs.min = 1, abs.max = 1)
Presolved Problem  :
  Problem name     : t_../modeles/2_289.lp
  Variables        : 669 (333 binary, 0 integer, 0 implicit integer, 336 continuous)
  Constraints      : 343 initial, 343 maximal
  Objective        : minimize, 336 non-zeros (abs.min = 0.00692042, abs.max = 1.391)
  Nonzeros         : 2339 constraint, 333 clique table
Presolvers         :   ExecTime  SetupTime  Calls  FixedVars   AggrVars   ChgTypes  ChgBounds   AddHoles    DelCons    AddCons   ChgSides   ChgCoefs
  boundshift       :       0.00       0.00      0          0          0          0          0          0          0          0          0          0
  convertinttobin  :       0.00       0.00      0          0          0          0          0          0          0          0          0          0
  domcol           :       0.01       0.00      8          0          0          0          0          0          0          0          0          0
  dualagg          :       0.00       0.00      0          0          0          0          0          0          0          0          0          0
  dualcomp         :       0.00       0.00      8          0          0          0          0          0          0          0          0          0
  dualinfer        :       0.00       0.00      0          0          0          0          0          0          0          0          0          0
  dualsparsify     :       0.00       0.00      1          0          0          0          0          0          0          0          0          0
  gateextraction   :       0.00       0.00      0          0          0          0          0          0          0          0          0          0
  implics          :       0.00       0.00     15          0          0          0          0          0          0          0          0          0
  inttobinary      :       0.00       0.00      0          0          0          0          0          0          0          0          0          0
  milp             :       0.10       0.00      2        332          0          0          8          0        587        425          0          0
  qpkktref         :       0.00       0.00      0          0          0          0          0          0          0          0          0          0
  redvub           :       0.00       0.00      0          0          0          0          0          0          0          0          0          0
  sparsify         :       0.01       0.00      3          0          0          0          0          0          0          0          0        418
  stuffing         :       0.00       0.00      0          0          0          0          0          0          0          0          0          0
  trivial          :       0.00       0.00     23          0          0          0          0          0          0          0          0          0
  tworowbnd        :       0.00       0.00      0          0          0          0          0          0          0          0          0          0
  dualfix          :       0.00       0.00     23          0          0          0          0          0          0          0          0          0
  genvbounds       :       0.00       0.00      0          0          0          0          0          0          0          0          0          0
  probing          :       0.15       0.00      7        152          0          0          0          0          0          0          0          0
  pseudoobj        :       0.00       0.00      0          0          0          0          0          0          0          0          0          0
  symmetry         :       0.00       0.00      1          0          0          0          0          0          0          0          0          0
  vbounds          :       0.00       0.00      1          0          0          0          0          0          0          0          0          0
  varbound         :       0.00       0.00     32          0          0          0          4          0         70          0          0          0
  setppc           :       0.00       0.00     45          0          0          0          0          0          0          0          0          0
  linear           :       0.01       0.00     37          5          2          0       1233          0          2          0          0        580
  benders          :       0.00       0.00      0          0          0          0          0          0          0          0          0          0
  components       :       0.00       0.00      1          0          0          0          0          0          0          0          0          0
  root node        :          -          -      -          0          -          -          0          -          -          -          -          -
Constraints        :     Number  MaxNumber  #Separate #Propagate    #EnfoLP    #EnfoRelax  #EnfoPS    #Check   #ResProp    Cutoffs    DomReds       Cuts    Applied      Conss   Children
  benderslp        :          0          0          0          0          0          0          0         29          0          0          0          0          0          0          0
  integral         :          0          0          0          0          0          0          0         29          0          0          0          0          0          0          0
  varbound         :          6          6         11       1527          0          0          0         23          0          0          0          0          0          0          0
  setppc           :          2          2         11       1489          0          0          0         23          0          0          0          0          0          0          0
  linear           :        335        335         11       1527          0          0          0         10          0        113          0          0          0          0          0
  benders          :          0          0          0          0          0          0          0          8          0          0          0          0          0          0          0
  countsols        :          0          0          0          0          0          0          0          8          0          0          0          0          0          0          0
  components       :          0          0          0          0          0          0          0          0          0          0          0          0          0          0          0
Constraint Timings :  TotalTime  SetupTime   Separate  Propagate     EnfoLP     EnfoPS     EnfoRelax   Check    ResProp    SB-Prop
  benderslp        :       0.00       0.00       0.00       0.00       0.00       0.00       0.00       0.00       0.00       0.00
  integral         :       0.00       0.00       0.00       0.00       0.00       0.00       0.00       0.00       0.00       0.00
  varbound         :       0.00       0.00       0.00       0.00       0.00       0.00       0.00       0.00       0.00       0.00
  setppc           :       0.00       0.00       0.00       0.00       0.00       0.00       0.00       0.00       0.00       0.00
  linear           :       0.05       0.00       0.00       0.04       0.00       0.00       0.00       0.00       0.00       0.00
  benders          :       0.00       0.00       0.00       0.00       0.00       0.00       0.00       0.00       0.00       0.00
  countsols        :       0.00       0.00       0.00       0.00       0.00       0.00       0.00       0.00       0.00       0.00
  components       :       0.00       0.00       0.00       0.00       0.00       0.00       0.00       0.00       0.00       0.00
Propagators        : #Propagate   #ResProp    Cutoffs    DomReds
  dualfix          :          1          0          0          0
  genvbounds       :          0          0          0          0
  nlobbt           :          0          0          0          0
  obbt             :          0          0          0          0
  probing          :          0          0          0          0
  pseudoobj        :         14          0          0          0
  redcost          :         13          0          0          0
  rootredcost      :          0          0          0          0
  symmetry         :          0          0          0          0
  vbounds          :        109          0          0          0
Propagator Timings :  TotalTime  SetupTime   Presolve  Propagate    ResProp    SB-Prop
  dualfix          :       0.00       0.00       0.00       0.00       0.00       0.00
  genvbounds       :       0.00       0.00       0.00       0.00       0.00       0.00
  nlobbt           :       0.00       0.00       0.00       0.00       0.00       0.00
  obbt             :       0.00       0.00       0.00       0.00       0.00       0.00
  probing          :       0.15       0.00       0.15       0.00       0.00       0.00
  pseudoobj        :       0.00       0.00       0.00       0.00       0.00       0.00
  redcost          :       0.00       0.00       0.00       0.00       0.00       0.00
  rootredcost      :       0.00       0.00       0.00       0.00       0.00       0.00
  symmetry         :       0.00       0.00       0.00       0.00       0.00       0.00
  vbounds          :       0.00       0.00       0.00       0.00       0.00       0.00
Conflict Analysis  :       Time      Calls    Success    DomReds  Conflicts   Literals    Reconvs ReconvLits   Dualrays   Nonzeros   LP Iters   (pool size: [--,--])
  propagation      :       0.00          0          0          -          0        0.0          0        0.0          -          -          -
  infeasible LP    :       0.00          1          0          -          0        0.0          0        0.0          0        0.0          0
  bound exceed. LP :       0.00          1          0          -          0        0.0          0        0.0          0        0.0          0
  strong branching :       0.00          0          0          -          0        0.0          0        0.0          -          -          0
  pseudo solution  :       0.00          0          0          -          0        0.0          0        0.0          -          -          -
  applied globally :       0.00          -          -          0          0        0.0          -          -          0          -          -
  applied locally  :          -          -          -          0          0        0.0          -          -          0          -          -
Separators         :   ExecTime  SetupTime      Calls    Cutoffs    DomReds       Cuts    Applied      Conss
  cut pool         :       0.00                    21          -          -         22          -          -    (maximal pool size: 47)
  aggregation      :       0.02       0.00         11          0          0         33         11          0
  > cmir           :          -          -          -          -          -          -         11          -
  > flowcover      :          -          -          -          -          -          -          0          -
  > knapsackcover  :          -          -          -          -          -          -          0          -
  cgmip            :       0.00       0.00          0          0          0          0          0          0
  clique           :       0.00       0.00         11          0          0          0          0          0
  closecuts        :       0.00       0.00          0          0          0          0          0          0
  convexproj       :       0.00       0.00          0          0          0          0          0          0
  disjunctive      :       0.00       0.00          0          0          0          0          0          0
  eccuts           :       0.00       0.00          0          0          0          0          0          0
  gauge            :       0.00       0.00          0          0          0          0          0          0
  gomory           :       0.01       0.00         10          0          0         14          0          0
  > gomorymi       :          -          -          -          -          -          -          0          -
  > strongcg       :          -          -          -          -          -          -          0          -
  impliedbounds    :       0.00       0.00         11          0          0          0          0          0
  interminor       :       0.00       0.00          0          0          0          0          0          0
  intobj           :       0.00       0.00          0          0          0          0          0          0
  mcf              :       0.00       0.00          1          0          0          0          0          0
  minor            :       0.00       0.00          0          0          0          0          0          0
  mixing           :       0.00       0.00         11          0          0          0          0          0
  oddcycle         :       0.00       0.00          0          0          0          0          0          0
  rapidlearning    :       0.00       0.00          0          0          0          0          0          0
  rlt              :       0.00       0.00         10          0          0          0          0          0
  zerohalf         :       0.00       0.00         11          0          0          0          0          0
Cutselectors       :   ExecTime  SetupTime
  hybrid           :       0.00       0.00
Pricers            :   ExecTime  SetupTime      Calls       Vars
  problem variables:       0.00          -          0          0
Branching Rules    :   ExecTime  SetupTime   BranchLP  BranchExt   BranchPS    Cutoffs    DomReds       Cuts      Conss   Children
  allfullstrong    :       0.00       0.00          0          0          0          0          0          0          0          0
  cloud            :       0.00       0.00          0          0          0          0          0          0          0          0
  distribution     :       0.00       0.00          0          0          0          0          0          0          0          0
  fullstrong       :       0.00       0.00          0          0          0          0          0          0          0          0
  inference        :       0.00       0.00          0          0          0          0          0          0          0          0
  leastinf         :       0.00       0.00          0          0          0          0          0          0          0          0
  lookahead        :       0.00       0.00          0          0          0          0          0          0          0          0
  mostinf          :       0.00       0.00          0          0          0          0          0          0          0          0
  multaggr         :       0.00       0.00          0          0          0          0          0          0          0          0
  nodereopt        :       0.00       0.00          0          0          0          0          0          0          0          0
  pscost           :       0.00       0.00          0          0          0          0          0          0          0          0
  random           :       0.00       0.00          0          0          0          0          0          0          0          0
  relpscost        :       0.00       0.00          0          0          0          0          0          0          0          0
  vanillafullstrong:       0.00       0.00          0          0          0          0          0          0          0          0
Primal Heuristics  :   ExecTime  SetupTime      Calls      Found       Best
  LP solutions     :       0.00          -          -          0          0
  relax solutions  :       0.00          -          -          0          0
  pseudo solutions :       0.00          -          -          0          0
  strong branching :       0.00          -          -          0          0
  actconsdiving    :       0.00       0.00          0          0          0
  adaptivediving   :       0.00       0.00          0          0          0
  alns             :       0.00       0.00          0          0          0
  bound            :       0.00       0.00          0          0          0
  clique           :       0.00       0.00          1          0          0
  coefdiving       :       0.00       0.00          0          0          0
  completesol      :       0.00       0.00          0          0          0
  conflictdiving   :       0.00       0.00          0          0          0
  crossover        :       0.00       0.00          0          0          0
  dins             :       0.00       0.00          0          0          0
  distributiondivin:       0.00       0.00          0          0          0
  dps              :       0.00       0.00          0          0          0
  dualval          :       0.00       0.00          0          0          0
  farkasdiving     :       0.00       0.00          0          0          0
  feaspump         :       0.00       0.00          1          1          0
  fixandinfer      :       0.00       0.00          0          0          0
  fracdiving       :       0.00       0.00          0          0          0
  gins             :       0.00       0.00          0          0          0
  guideddiving     :       0.00       0.00          0          0          0
  indicator        :       0.00       0.00          0          0          0
  intdiving        :       0.00       0.00          0          0          0
  intshifting      :       0.00       0.00          1          0          0
  linesearchdiving :       0.00       0.00          0          0          0
  localbranching   :       0.00       0.00          0          0          0
  locks            :       0.01       0.00          1          0          0
  lpface           :       0.00       0.00          0          0          0
  mpec             :       0.00       0.00          0          0          0
  multistart       :       0.00       0.00          0          0          0
  mutation         :       0.00       0.00          0          0          0
  nlpdiving        :       0.00       0.00          0          0          0
  objpscostdiving  :       0.00       0.00          0          0          0
  octane           :       0.00       0.00          0          0          0
  ofins            :       0.00       0.00          0          0          0
  oneopt           :       0.00       0.00          2          0          0
  padm             :       0.00       0.00          0          0          0
  proximity        :       0.00       0.00          0          0          0
  pscostdiving     :       0.00       0.00          0          0          0
  randrounding     :       0.00       0.00         12          0          0
  rens             :       0.01       0.00          1          1          1
  reoptsols        :       0.00       0.00          0          0          0
  repair           :       0.00       0.00          0          0          0
  rins             :       0.00       0.00          0          0          0
  rootsoldiving    :       0.00       0.00          0          0          0
  rounding         :       0.00       0.00         12          0          0
  shiftandpropagate:       0.00       0.00          1          0          0
  shifting         :       0.00       0.00         12          5          3
  simplerounding   :       0.00       0.00          0          0          0
  subnlp           :       0.00       0.00          0          0          0
  trivial          :       0.00       0.00          2          0          0
  trivialnegation  :       0.00       0.00          0          0          0
  trustregion      :       0.00       0.00          0          0          0
  trysol           :       0.00       0.00          0          0          0
  twoopt           :       0.00       0.00          0          0          0
  undercover       :       0.00       0.00          0          0          0
  vbounds          :       0.00       0.00          0          0          0
  veclendiving     :       0.00       0.00          0          0          0
  zeroobj          :       0.00       0.00          0          0          0
  zirounding       :       0.00       0.00          1          0          0
  other solutions  :          -          -          -          0          -
Diving (single)    :      Calls      Nodes   LP Iters Backtracks  Conflicts   MinDepth   MaxDepth   AvgDepth  RoundSols  NLeafSols  MinSolDpt  MaxSolDpt  AvgSolDpt
  actconsdiving    :          0          -          -          -          -          -          -          -          -          -          -          -          -
  coefdiving       :          0          -          -          -          -          -          -          -          -          -          -          -          -
  conflictdiving   :          0          -          -          -          -          -          -          -          -          -          -          -          -
  distributiondivin:          0          -          -          -          -          -          -          -          -          -          -          -          -
  farkasdiving     :          0          -          -          -          -          -          -          -          -          -          -          -          -
  fracdiving       :          0          -          -          -          -          -          -          -          -          -          -          -          -
  guideddiving     :          0          -          -          -          -          -          -          -          -          -          -          -          -
  linesearchdiving :          0          -          -          -          -          -          -          -          -          -          -          -          -
  pscostdiving     :          0          -          -          -          -          -          -          -          -          -          -          -          -
  veclendiving     :          0          -          -          -          -          -          -          -          -          -          -          -          -
Diving (adaptive)  :      Calls      Nodes   LP Iters Backtracks  Conflicts   MinDepth   MaxDepth   AvgDepth  RoundSols  NLeafSols  MinSolDpt  MaxSolDpt  AvgSolDpt
  actconsdiving    :          0          -          -          -          -          -          -          -          -          -          -          -          -
  coefdiving       :          0          -          -          -          -          -          -          -          -          -          -          -          -
  conflictdiving   :          0          -          -          -          -          -          -          -          -          -          -          -          -
  distributiondivin:          0          -          -          -          -          -          -          -          -          -          -          -          -
  farkasdiving     :          0          -          -          -          -          -          -          -          -          -          -          -          -
  fracdiving       :          0          -          -          -          -          -          -          -          -          -          -          -          -
  guideddiving     :          0          -          -          -          -          -          -          -          -          -          -          -          -
  linesearchdiving :          0          -          -          -          -          -          -          -          -          -          -          -          -
  pscostdiving     :          0          -          -          -          -          -          -          -          -          -          -          -          -
  veclendiving     :          0          -          -          -          -          -          -          -          -          -          -          -          -
Neighborhoods      :      Calls  SetupTime  SolveTime SolveNodes       Sols       Best       Exp3  EpsGreedy        UCB TgtFixRate  Opt  Inf Node Stal  Sol  Usr Othr Actv
  rens             :          0       0.00       0.00          0          0          0    0.00000   -1.00000    1.00000      0.900    0    0    0    0    0    0    0    1
  rins             :          0       0.00       0.00          0          0          0    0.00000   -1.00000    1.00000      0.900    0    0    0    0    0    0    0    1
  mutation         :          0       0.00       0.00          0          0          0    0.00000   -1.00000    1.00000      0.900    0    0    0    0    0    0    0    1
  localbranching   :          0       0.00       0.00          0          0          0    0.00000   -1.00000    1.00000      0.900    0    0    0    0    0    0    0    1
  crossover        :          0       0.00       0.00          0          0          0    0.00000   -1.00000    1.00000      0.900    0    0    0    0    0    0    0    1
  proximity        :          0       0.00       0.00          0          0          0    0.00000   -1.00000    1.00000      0.900    0    0    0    0    0    0    0    1
  zeroobjective    :          0       0.00       0.00          0          0          0    0.00000   -1.00000    1.00000      0.900    0    0    0    0    0    0    0    1
  dins             :          0       0.00       0.00          0          0          0    0.00000   -1.00000    1.00000      0.900    0    0    0    0    0    0    0    1
  trustregion      :          0       0.00       0.00          0          0          0    0.00000   -1.00000    1.00000      0.900    0    0    0    0    0    0    0    0
LP                 :       Time      Calls Iterations  Iter/call   Iter/sec  Time-0-It Calls-0-It    ItLimit
  primal LP        :       0.00          0          0       0.00          -       0.00          0
  dual LP          :       0.01         12        200      16.67          -       0.00          0
  lex dual LP      :       0.00          0          0       0.00          -
  barrier LP       :       0.00          0          0       0.00          -       0.00          0
  resolve instable :       0.00          0          0       0.00          -
  diving/probing LP:       0.01          6        602     100.33          -
  strong branching :       0.00          0          0       0.00          -          -          -          0
    (at root node) :          -          0          0       0.00          -
  conflict analysis:       0.00          0          0       0.00          -
B&B Tree           :
  number of runs   :          1
  nodes            :          1 (0 internal, 1 leaves)
  feasible leaves  :          0
  infeas. leaves   :          0
  objective leaves :          1
  nodes (total)    :          1 (0 internal, 1 leaves)
  nodes left       :          0
  max depth        :          0
  max depth (total):          0
  backtracks       :          0 (0.0%)
  early backtracks :          0 (0.0%)
  nodes exc. ref.  :          0 (0.0%)
  delayed cutoffs  :          0
  repropagations   :          0 (0 domain reductions, 0 cutoffs)
  avg switch length:       2.00
  switching time   :       0.00
Estim. Tree Size   :          1
Estimation Tree    : 1 nodes (1 visited, 0 internal, 1 leaves, 0 open), weight: 1.0000 completed 1.0000
Estimations        :      estim      value      trend resolution     smooth
  wbe              :          1          -          -          -          -
  tree-profile     :         -1          -          -          -          -
  gap              :          1    1.00000    1.00000          1          1
  tree-weight      :          1    1.00000    1.00000          1          1
  leaf-frequency   :          1    0.50000    1.00000          1          1
  ssg              :          1    0.00000   -1.00000          1          1
  open-nodes       :          1    0.00000    0.00000          1          1
Root Node          :
  First LP value   : -1.41414783906642e+00
  First LP Iters   :        189 (63508.06 Iter/sec)
  First LP Time    :       0.00
  Final Dual Bound : -1.41414783906642e+00
  Final Root Iters :        200
  Root LP Estimate :                     -
Solution           :
  Solutions found  :          7 (4 improvements)
  First Solution   : -3.46020761245674e-01   (in run 1, after 1 nodes, 0.32 seconds, depth 0, found by <shifting>)
  Gap First Sol.   :     308.69 %
  Gap Last Sol.    :       0.00 %
  Primal Bound     : -1.41414783906642e+00   (in run 1, after 1 nodes, 0.37 seconds, depth 0, found by <rens>)
  Dual Bound       : -1.41414783906642e+00
  Gap              :       0.00 %
Integrals          :      Total       Avg%
  primal-dual      :      33.45      90.30
  primal-ref       :          -          - (not evaluated)
  dual-ref         :          -          - (not evaluated)
